c Mesh Graph
c 16 Rows, 14 columns, capacities in range [0, 200]
p max 226 656
n 1 s
n 226 t
a 1 17 600
a 1 16 600
a 1 15 600
a 1 14 600
a 1 13 600
a 1 12 600
a 1 11 600
a 1 10 600
a 1 9 600
a 1 8 600
a 1 7 600
a 1 6 600
a 1 5 600
a 1 4 600
a 1 3 600
a 1 2 600
a 2 19 178
a 2 18 87
a 2 33 184
a 3 20 136
a 3 19 194
a 3 18 116
a 4 21 50
a 4 20 93
a 4 19 187
a 5 22 28
a 5 21 163
a 5 20 22
a 6 23 164
a 6 22 60
a 6 21 91
a 7 24 27
a 7 23 141
a 7 22 127
a 8 25 12
a 8 24 137
a 8 23 173
a 9 26 30
a 9 25 168
a 9 24 169
a 10 27 63
a 10 26 131
a 10 25 183
a 11 28 136
a 11 27 68
a 11 26 124
a 12 29 23
a 12 28 3
a 12 27 130
a 13 30 168
a 13 29 70
a 13 28 59
a 14 31 12
a 14 30 57
a 14 29 194
a 15 32 174
a 15 31 30
a 15 30 43
a 16 33 185
a 16 32 120
a 16 31 22
a 17 18 125
a 17 33 199
a 17 32 138
a 18 35 14
a 18 34 171
a 18 49 116
a 19 36 181
a 19 35 92
a 19 34 127
a 20 37 63
a 20 36 74
a 20 35 157
a 21 38 82
a 21 37 197
a 21 36 171
a 22 39 85
a 22 38 126
a 22 37 106
a 23 40 106
a 23 39 137
a 23 38 128
a 24 41 114
a 24 40 130
a 24 39 47
a 25 42 96
a 25 41 125
a 25 40 58
a 26 43 15
a 26 42 146
a 26 41 183
a 27 44 165
a 27 43 35
a 27 42 168
a 28 45 88
a 28 44 151
a 28 43 44
a 29 46 179
a 29 45 77
a 29 44 9
a 30 47 4
a 30 46 185
a 30 45 189
a 31 48 200
a 31 47 155
a 31 46 52
a 32 49 77
a 32 48 61
a 32 47 133
a 33 34 13
a 33 49 140
a 33 48 169
a 34 51 95
a 34 50 187
a 34 65 27
a 35 52 171
a 35 51 196
a 35 50 140
a 36 53 68
a 36 52 179
a 36 51 35
a 37 54 103
a 37 53 98
a 37 52 2
a 38 55 53
a 38 54 93
a 38 53 118
a 39 56 81
a 39 55 102
a 39 54 157
a 40 57 66
a 40 56 42
a 40 55 87
a 41 58 20
a 41 57 45
a 41 56 90
a 42 59 32
a 42 58 130
a 42 57 41
a 43 60 172
a 43 59 98
a 43 58 118
a 44 61 110
a 44 60 76
a 44 59 82
a 45 62 57
a 45 61 168
a 45 60 128
a 46 63 187
a 46 62 154
a 46 61 98
a 47 64 84
a 47 63 107
a 47 62 166
a 48 65 129
a 48 64 25
a 48 63 20
a 49 50 30
a 49 65 133
a 49 64 72
a 50 67 71
a 50 66 20
a 50 81 104
a 51 68 116
a 51 67 109
a 51 66 169
a 52 69 197
a 52 68 150
a 52 67 141
a 53 70 46
a 53 69 19
a 53 68 124
a 54 71 122
a 54 70 52
a 54 69 47
a 55 72 89
a 55 71 180
a 55 70 156
a 56 73 42
a 56 72 29
a 56 71 165
a 57 74 101
a 57 73 194
a 57 72 151
a 58 75 125
a 58 74 165
a 58 73 35
a 59 76 57
a 59 75 188
a 59 74 115
a 60 77 28
a 60 76 92
a 60 75 144
a 61 78 137
a 61 77 60
a 61 76 166
a 62 79 38
a 62 78 152
a 62 77 33
a 63 80 8
a 63 79 76
a 63 78 29
a 64 81 59
a 64 80 122
a 64 79 75
a 65 66 38
a 65 81 30
a 65 80 196
a 66 83 19
a 66 82 194
a 66 97 36
a 67 84 12
a 67 83 144
a 67 82 29
a 68 85 177
a 68 84 130
a 68 83 129
a 69 86 164
a 69 85 44
a 69 84 5
a 70 87 7
a 70 86 139
a 70 85 14
a 71 88 19
a 71 87 105
a 71 86 41
a 72 89 170
a 72 88 89
a 72 87 129
a 73 90 197
a 73 89 118
a 73 88 118
a 74 91 71
a 74 90 144
a 74 89 125
a 75 92 100
a 75 91 91
a 75 90 184
a 76 93 45
a 76 92 126
a 76 91 173
a 77 94 140
a 77 93 106
a 77 92 191
a 78 95 70
a 78 94 187
a 78 93 155
a 79 96 65
a 79 95 143
a 79 94 83
a 80 97 156
a 80 96 108
a 80 95 198
a 81 82 12
a 81 97 149
a 81 96 5
a 82 99 100
a 82 98 29
a 82 113 23
a 83 100 169
a 83 99 147
a 83 98 144
a 84 101 112
a 84 100 23
a 84 99 141
a 85 102 2
a 85 101 6
a 85 100 11
a 86 103 79
a 86 102 131
a 86 101 62
a 87 104 137
a 87 103 121
a 87 102 106
a 88 105 123
a 88 104 27
a 88 103 45
a 89 106 17
a 89 105 109
a 89 104 66
a 90 107 125
a 90 106 59
a 90 105 83
a 91 108 25
a 91 107 63
a 91 106 38
a 92 109 53
a 92 108 37
a 92 107 1
a 93 110 151
a 93 109 180
a 93 108 100
a 94 111 174
a 94 110 72
a 94 109 69
a 95 112 131
a 95 111 82
a 95 110 132
a 96 113 61
a 96 112 95
a 96 111 134
a 97 98 182
a 97 113 200
a 97 112 164
a 98 115 160
a 98 114 197
a 98 129 100
a 99 116 69
a 99 115 14
a 99 114 174
a 100 117 127
a 100 116 96
a 100 115 191
a 101 118 141
a 101 117 85
a 101 116 67
a 102 119 177
a 102 118 85
a 102 117 91
a 103 120 108
a 103 119 137
a 103 118 143
a 104 121 180
a 104 120 157
a 104 119 46
a 105 122 13
a 105 121 88
a 105 120 19
a 106 123 60
a 106 122 173
a 106 121 149
a 107 124 11
a 107 123 137
a 107 122 10
a 108 125 7
a 108 124 188
a 108 123 143
a 109 126 173
a 109 125 114
a 109 124 102
a 110 127 20
a 110 126 56
a 110 125 122
a 111 128 105
a 111 127 122
a 111 126 200
a 112 129 141
a 112 128 12
a 112 127 140
a 113 114 29
a 113 129 106
a 113 128 68
a 114 131 185
a 114 130 151
a 114 145 128
a 115 132 25
a 115 131 121
a 115 130 59
a 116 133 197
a 116 132 70
a 116 131 23
a 117 134 85
a 117 133 31
a 117 132 82
a 118 135 73
a 118 134 173
a 118 133 93
a 119 136 186
a 119 135 26
a 119 134 51
a 120 137 41
a 120 136 100
a 120 135 23
a 121 138 114
a 121 137 99
a 121 136 43
a 122 139 125
a 122 138 191
a 122 137 99
a 123 140 182
a 123 139 10
a 123 138 191
a 124 141 133
a 124 140 137
a 124 139 20
a 125 142 5
a 125 141 195
a 125 140 156
a 126 143 74
a 126 142 170
a 126 141 180
a 127 144 56
a 127 143 51
a 127 142 177
a 128 145 180
a 128 144 143
a 128 143 61
a 129 130 6
a 129 145 194
a 129 144 85
a 130 147 105
a 130 146 168
a 130 161 22
a 131 148 155
a 131 147 162
a 131 146 14
a 132 149 145
a 132 148 60
a 132 147 127
a 133 150 107
a 133 149 3
a 133 148 3
a 134 151 43
a 134 150 22
a 134 149 185
a 135 152 190
a 135 151 129
a 135 150 69
a 136 153 159
a 136 152 109
a 136 151 73
a 137 154 9
a 137 153 37
a 137 152 99
a 138 155 104
a 138 154 49
a 138 153 154
a 139 156 49
a 139 155 134
a 139 154 134
a 140 157 168
a 140 156 155
a 140 155 91
a 141 158 130
a 141 157 169
a 141 156 147
a 142 159 189
a 142 158 47
a 142 157 101
a 143 160 191
a 143 159 50
a 143 158 198
a 144 161 164
a 144 160 34
a 144 159 104
a 145 146 93
a 145 161 54
a 145 160 98
a 146 163 153
a 146 162 126
a 146 177 87
a 147 164 189
a 147 163 176
a 147 162 197
a 148 165 37
a 148 164 130
a 148 163 158
a 149 166 122
a 149 165 15
a 149 164 61
a 150 167 29
a 150 166 105
a 150 165 61
a 151 168 149
a 151 167 51
a 151 166 28
a 152 169 195
a 152 168 103
a 152 167 157
a 153 170 44
a 153 169 100
a 153 168 98
a 154 171 29
a 154 170 3
a 154 169 40
a 155 172 82
a 155 171 101
a 155 170 4
a 156 173 160
a 156 172 139
a 156 171 48
a 157 174 135
a 157 173 136
a 157 172 152
a 158 175 16
a 158 174 93
a 158 173 140
a 159 176 30
a 159 175 105
a 159 174 128
a 160 177 86
a 160 176 165
a 160 175 50
a 161 162 136
a 161 177 144
a 161 176 30
a 162 179 39
a 162 178 101
a 162 193 178
a 163 180 90
a 163 179 150
a 163 178 172
a 164 181 93
a 164 180 189
a 164 179 168
a 165 182 145
a 165 181 144
a 165 180 196
a 166 183 83
a 166 182 191
a 166 181 30
a 167 184 170
a 167 183 142
a 167 182 141
a 168 185 62
a 168 184 33
a 168 183 27
a 169 186 118
a 169 185 161
a 169 184 43
a 170 187 82
a 170 186 162
a 170 185 24
a 171 188 26
a 171 187 191
a 171 186 110
a 172 189 78
a 172 188 168
a 172 187 197
a 173 190 27
a 173 189 91
a 173 188 35
a 174 191 15
a 174 190 58
a 174 189 125
a 175 192 159
a 175 191 6
a 175 190 169
a 176 193 101
a 176 192 187
a 176 191 113
a 177 178 195
a 177 193 127
a 177 192 147
a 178 195 179
a 178 194 153
a 178 209 117
a 179 196 91
a 179 195 147
a 179 194 130
a 180 197 52
a 180 196 171
a 180 195 48
a 181 198 194
a 181 197 32
a 181 196 81
a 182 199 113
a 182 198 28
a 182 197 58
a 183 200 156
a 183 199 15
a 183 198 87
a 184 201 13
a 184 200 91
a 184 199 113
a 185 202 170
a 185 201 11
a 185 200 80
a 186 203 156
a 186 202 75
a 186 201 190
a 187 204 34
a 187 203 21
a 187 202 42
a 188 205 139
a 188 204 89
a 188 203 188
a 189 206 85
a 189 205 171
a 189 204 167
a 190 207 7
a 190 206 18
a 190 205 57
a 191 208 38
a 191 207 50
a 191 206 61
a 192 209 18
a 192 208 60
a 192 207 6
a 193 194 184
a 193 209 146
a 193 208 119
a 194 211 74
a 194 210 59
a 194 225 74
a 195 212 84
a 195 211 90
a 195 210 38
a 196 213 158
a 196 212 79
a 196 211 8
a 197 214 130
a 197 213 72
a 197 212 115
a 198 215 19
a 198 214 60
a 198 213 101
a 199 216 189
a 199 215 26
a 199 214 39
a 200 217 158
a 200 216 34
a 200 215 75
a 201 218 159
a 201 217 94
a 201 216 82
a 202 219 18
a 202 218 100
a 202 217 71
a 203 220 164
a 203 219 170
a 203 218 40
a 204 221 174
a 204 220 195
a 204 219 23
a 205 222 63
a 205 221 32
a 205 220 48
a 206 223 93
a 206 222 191
a 206 221 83
a 207 224 116
a 207 223 58
a 207 222 192
a 208 225 175
a 208 224 158
a 208 223 122
a 209 210 152
a 209 225 148
a 209 224 92
a 210 226 600
a 211 226 600
a 212 226 600
a 213 226 600
a 214 226 600
a 215 226 600
a 216 226 600
a 217 226 600
a 218 226 600
a 219 226 600
a 220 226 600
a 221 226 600
a 222 226 600
a 223 226 600
a 224 226 600
a 225 226 600
